c colouring generated by benchmark framework
p edge 125 6961
v 1 4
v 2 32
v 3 12
v 4 6
v 5 39
v 6 24
v 7 45
v 8 17
v 9 47
v 10 54
v 11 33
v 12 19
v 13 21
v 14 13
v 15 31
v 16 18
v 17 30
v 18 26
v 19 48
v 20 10
v 21 48
v 22 57
v 23 44
v 24 23
v 25 49
v 26 10
v 27 15
v 28 46
v 29 9
v 30 14
v 31 52
v 32 1
v 33 29
v 34 0
v 35 44
v 36 13
v 37 2
v 38 29
v 39 31
v 40 6
v 41 38
v 42 53
v 43 5
v 44 11
v 45 40
v 46 8
v 47 20
v 48 35
v 49 34
v 50 25
v 51 28
v 52 37
v 53 17
v 54 19
v 55 28
v 56 41
v 57 3
v 58 56
v 59 3
v 60 49
v 61 14
v 62 46
v 63 45
v 64 53
v 65 37
v 66 11
v 67 33
v 68 24
v 69 26
v 70 16
v 71 50
v 72 50
v 73 18
v 74 30
v 75 41
v 76 40
v 77 1
v 78 8
v 79 10
v 80 27
v 81 0
v 82 14
v 83 43
v 84 35
v 85 55
v 86 43
v 87 25
v 88 5
v 89 23
v 90 5
v 91 2
v 92 36
v 93 53
v 94 19
v 95 22
v 96 22
v 97 17
v 98 36
v 99 34
v 100 21
v 101 20
v 102 9
v 103 51
v 104 17
v 105 7
v 106 4
v 107 23
v 108 39
v 109 7
v 110 42
v 111 32
v 112 16
v 113 12
v 114 47
v 115 27
v 116 15
v 117 46
v 118 27
v 119 42
v 120 9
v 121 3
v 122 38
v 123 12
v 124 40
v 125 28
